\ Model STL formula: ((G[0.0, 10.0] (x >= 3.0)) && (G[12.0, 15.0] (x <= 1.0)) && (G[17.0, 24.0] (x >= 4.0)))
\ LP format - for model browsing. Use MPS format to capture full model detail.
Minimize
  - rho + 0 u_29 + 0 v_29 + 0 w_29
Subject To
 R0: x_0 = 3
 R1: y_0 = 4
 R2: z_0 = 3
 R3: - x_0 - u_0 + x_1 = 0
 R4: - y_0 - v_0 + y_1 = 0
 R5: - z_0 - w_0 + z_1 = 0
 R6: - x_1 - u_1 + x_2 = 0
 R7: - y_1 - v_1 + y_2 = 0
 R8: - z_1 - w_1 + z_2 = 0
 R9: - x_2 - u_2 + x_3 = 0
 R10: - y_2 - v_2 + y_3 = 0
 R11: - z_2 - w_2 + z_3 = 0
 R12: - x_3 - u_3 + x_4 = 0
 R13: - y_3 - v_3 + y_4 = 0
 R14: - z_3 - w_3 + z_4 = 0
 R15: - x_4 - u_4 + x_5 = 0
 R16: - y_4 - v_4 + y_5 = 0
 R17: - z_4 - w_4 + z_5 = 0
 R18: - x_5 - u_5 + x_6 = 0
 R19: - y_5 - v_5 + y_6 = 0
 R20: - z_5 - w_5 + z_6 = 0
 R21: - x_6 - u_6 + x_7 = 0
 R22: - y_6 - v_6 + y_7 = 0
 R23: - z_6 - w_6 + z_7 = 0
 R24: - x_7 - u_7 + x_8 = 0
 R25: - y_7 - v_7 + y_8 = 0
 R26: - z_7 - w_7 + z_8 = 0
 R27: - x_8 - u_8 + x_9 = 0
 R28: - y_8 - v_8 + y_9 = 0
 R29: - z_8 - w_8 + z_9 = 0
 R30: - x_9 - u_9 + x_10 = 0
 R31: - y_9 - v_9 + y_10 = 0
 R32: - z_9 - w_9 + z_10 = 0
 R33: - x_10 - u_10 + x_11 = 0
 R34: - y_10 - v_10 + y_11 = 0
 R35: - z_10 - w_10 + z_11 = 0
 R36: - x_11 - u_11 + x_12 = 0
 R37: - y_11 - v_11 + y_12 = 0
 R38: - z_11 - w_11 + z_12 = 0
 R39: - x_12 - u_12 + x_13 = 0
 R40: - y_12 - v_12 + y_13 = 0
 R41: - z_12 - w_12 + z_13 = 0
 R42: - x_13 - u_13 + x_14 = 0
 R43: - y_13 - v_13 + y_14 = 0
 R44: - z_13 - w_13 + z_14 = 0
 R45: - x_14 - u_14 + x_15 = 0
 R46: - y_14 - v_14 + y_15 = 0
 R47: - z_14 - w_14 + z_15 = 0
 R48: - x_15 - u_15 + x_16 = 0
 R49: - y_15 - v_15 + y_16 = 0
 R50: - z_15 - w_15 + z_16 = 0
 R51: - x_16 - u_16 + x_17 = 0
 R52: - y_16 - v_16 + y_17 = 0
 R53: - z_16 - w_16 + z_17 = 0
 R54: - x_17 - u_17 + x_18 = 0
 R55: - y_17 - v_17 + y_18 = 0
 R56: - z_17 - w_17 + z_18 = 0
 R57: - x_18 - u_18 + x_19 = 0
 R58: - y_18 - v_18 + y_19 = 0
 R59: - z_18 - w_18 + z_19 = 0
 R60: - x_19 - u_19 + x_20 = 0
 R61: - y_19 - v_19 + y_20 = 0
 R62: - z_19 - w_19 + z_20 = 0
 R63: - x_20 - u_20 + x_21 = 0
 R64: - y_20 - v_20 + y_21 = 0
 R65: - z_20 - w_20 + z_21 = 0
 R66: - x_21 - u_21 + x_22 = 0
 R67: - y_21 - v_21 + y_22 = 0
 R68: - z_21 - w_21 + z_22 = 0
 R69: - x_22 - u_22 + x_23 = 0
 R70: - y_22 - v_22 + y_23 = 0
 R71: - z_22 - w_22 + z_23 = 0
 R72: - x_23 - u_23 + x_24 = 0
 R73: - y_23 - v_23 + y_24 = 0
 R74: - z_23 - w_23 + z_24 = 0
 R75: - x_24 - u_24 + x_25 = 0
 R76: - y_24 - v_24 + y_25 = 0
 R77: - z_24 - w_24 + z_25 = 0
 R78: - x_25 - u_25 + x_26 = 0
 R79: - y_25 - v_25 + y_26 = 0
 R80: - z_25 - w_25 + z_26 = 0
 R81: - x_26 - u_26 + x_27 = 0
 R82: - y_26 - v_26 + y_27 = 0
 R83: - z_26 - w_26 + z_27 = 0
 R84: - x_27 - u_27 + x_28 = 0
 R85: - y_27 - v_27 + y_28 = 0
 R86: - z_27 - w_27 + z_28 = 0
 R87: - x_28 - u_28 + x_29 = 0
 R88: - y_28 - v_28 + y_29 = 0
 R89: - z_28 - w_28 + z_29 = 0
 R90: - rho + x_0 - 20 predicate_2dx22dd95ed78b4d217_0 <= 3
 R91: - rho + x_0 - 20 predicate_2dx22dd95ed78b4d217_0 >= -17
 R92: - rho + x_1 - 20 predicate_2dx22dd95ed78b4d217_1 <= 3
 R93: - rho + x_1 - 20 predicate_2dx22dd95ed78b4d217_1 >= -17
 R94: - rho + x_2 - 20 predicate_2dx22dd95ed78b4d217_2 <= 3
 R95: - rho + x_2 - 20 predicate_2dx22dd95ed78b4d217_2 >= -17
 R96: - rho + x_3 - 20 predicate_2dx22dd95ed78b4d217_3 <= 3
 R97: - rho + x_3 - 20 predicate_2dx22dd95ed78b4d217_3 >= -17
 R98: - rho + x_4 - 20 predicate_2dx22dd95ed78b4d217_4 <= 3
 R99: - rho + x_4 - 20 predicate_2dx22dd95ed78b4d217_4 >= -17
 R100: - rho + x_5 - 20 predicate_2dx22dd95ed78b4d217_5 <= 3
 R101: - rho + x_5 - 20 predicate_2dx22dd95ed78b4d217_5 >= -17
 R102: - rho + x_6 - 20 predicate_2dx22dd95ed78b4d217_6 <= 3
 R103: - rho + x_6 - 20 predicate_2dx22dd95ed78b4d217_6 >= -17
 R104: - rho + x_7 - 20 predicate_2dx22dd95ed78b4d217_7 <= 3
 R105: - rho + x_7 - 20 predicate_2dx22dd95ed78b4d217_7 >= -17
 R106: - rho + x_8 - 20 predicate_2dx22dd95ed78b4d217_8 <= 3
 R107: - rho + x_8 - 20 predicate_2dx22dd95ed78b4d217_8 >= -17
 R108: - rho + x_9 - 20 predicate_2dx22dd95ed78b4d217_9 <= 3
 R109: - rho + x_9 - 20 predicate_2dx22dd95ed78b4d217_9 >= -17
 R110: - rho + x_10 - 20 predicate_2dx22dd95ed78b4d217_10 <= 3
 R111: - rho + x_10 - 20 predicate_2dx22dd95ed78b4d217_10 >= -17
 R112: always_2dx778710aa24bf45ad_0 - predicate_2dx22dd95ed78b4d217_0 <= 0
 R113: always_2dx778710aa24bf45ad_0 - predicate_2dx22dd95ed78b4d217_1 <= 0
 R114: always_2dx778710aa24bf45ad_0 - predicate_2dx22dd95ed78b4d217_2 <= 0
 R115: always_2dx778710aa24bf45ad_0 - predicate_2dx22dd95ed78b4d217_3 <= 0
 R116: always_2dx778710aa24bf45ad_0 - predicate_2dx22dd95ed78b4d217_4 <= 0
 R117: always_2dx778710aa24bf45ad_0 - predicate_2dx22dd95ed78b4d217_5 <= 0
 R118: always_2dx778710aa24bf45ad_0 - predicate_2dx22dd95ed78b4d217_6 <= 0
 R119: always_2dx778710aa24bf45ad_0 - predicate_2dx22dd95ed78b4d217_7 <= 0
 R120: always_2dx778710aa24bf45ad_0 - predicate_2dx22dd95ed78b4d217_8 <= 0
 R121: always_2dx778710aa24bf45ad_0 - predicate_2dx22dd95ed78b4d217_9 <= 0
 R122: always_2dx778710aa24bf45ad_0 - predicate_2dx22dd95ed78b4d217_10
   <= 0
 R123: always_2dx778710aa24bf45ad_0 - predicate_2dx22dd95ed78b4d217_0
   - predicate_2dx22dd95ed78b4d217_1 - predicate_2dx22dd95ed78b4d217_2
   - predicate_2dx22dd95ed78b4d217_3 - predicate_2dx22dd95ed78b4d217_4
   - predicate_2dx22dd95ed78b4d217_5 - predicate_2dx22dd95ed78b4d217_6
   - predicate_2dx22dd95ed78b4d217_7 - predicate_2dx22dd95ed78b4d217_8
   - predicate_2dx22dd95ed78b4d217_9 - predicate_2dx22dd95ed78b4d217_10
   >= -10
 R124: rho + x_12 + 20 predicate_2dx797b9146c700e2d3_12 >= 1
 R125: rho + x_12 + 20 predicate_2dx797b9146c700e2d3_12 <= 21
 R126: rho + x_13 + 20 predicate_2dx797b9146c700e2d3_13 >= 1
 R127: rho + x_13 + 20 predicate_2dx797b9146c700e2d3_13 <= 21
 R128: rho + x_14 + 20 predicate_2dx797b9146c700e2d3_14 >= 1
 R129: rho + x_14 + 20 predicate_2dx797b9146c700e2d3_14 <= 21
 R130: rho + x_15 + 20 predicate_2dx797b9146c700e2d3_15 >= 1
 R131: rho + x_15 + 20 predicate_2dx797b9146c700e2d3_15 <= 21
 R132: always_2dx96788d971626418_0 - predicate_2dx797b9146c700e2d3_12 <= 0
 R133: always_2dx96788d971626418_0 - predicate_2dx797b9146c700e2d3_13 <= 0
 R134: always_2dx96788d971626418_0 - predicate_2dx797b9146c700e2d3_14 <= 0
 R135: always_2dx96788d971626418_0 - predicate_2dx797b9146c700e2d3_15 <= 0
 R136: always_2dx96788d971626418_0 - predicate_2dx797b9146c700e2d3_12
   - predicate_2dx797b9146c700e2d3_13 - predicate_2dx797b9146c700e2d3_14
   - predicate_2dx797b9146c700e2d3_15 >= -3
 R137: - rho + x_17 - 20 predicate_2dx30be4d89f565bb0c_17 <= 4
 R138: - rho + x_17 - 20 predicate_2dx30be4d89f565bb0c_17 >= -16
 R139: - rho + x_18 - 20 predicate_2dx30be4d89f565bb0c_18 <= 4
 R140: - rho + x_18 - 20 predicate_2dx30be4d89f565bb0c_18 >= -16
 R141: - rho + x_19 - 20 predicate_2dx30be4d89f565bb0c_19 <= 4
 R142: - rho + x_19 - 20 predicate_2dx30be4d89f565bb0c_19 >= -16
 R143: - rho + x_20 - 20 predicate_2dx30be4d89f565bb0c_20 <= 4
 R144: - rho + x_20 - 20 predicate_2dx30be4d89f565bb0c_20 >= -16
 R145: - rho + x_21 - 20 predicate_2dx30be4d89f565bb0c_21 <= 4
 R146: - rho + x_21 - 20 predicate_2dx30be4d89f565bb0c_21 >= -16
 R147: - rho + x_22 - 20 predicate_2dx30be4d89f565bb0c_22 <= 4
 R148: - rho + x_22 - 20 predicate_2dx30be4d89f565bb0c_22 >= -16
 R149: - rho + x_23 - 20 predicate_2dx30be4d89f565bb0c_23 <= 4
 R150: - rho + x_23 - 20 predicate_2dx30be4d89f565bb0c_23 >= -16
 R151: - rho + x_24 - 20 predicate_2dx30be4d89f565bb0c_24 <= 4
 R152: - rho + x_24 - 20 predicate_2dx30be4d89f565bb0c_24 >= -16
 R153: always_2dx33306d9e7f58b6b0_0 - predicate_2dx30be4d89f565bb0c_17
   <= 0
 R154: always_2dx33306d9e7f58b6b0_0 - predicate_2dx30be4d89f565bb0c_18
   <= 0
 R155: always_2dx33306d9e7f58b6b0_0 - predicate_2dx30be4d89f565bb0c_19
   <= 0
 R156: always_2dx33306d9e7f58b6b0_0 - predicate_2dx30be4d89f565bb0c_20
   <= 0
 R157: always_2dx33306d9e7f58b6b0_0 - predicate_2dx30be4d89f565bb0c_21
   <= 0
 R158: always_2dx33306d9e7f58b6b0_0 - predicate_2dx30be4d89f565bb0c_22
   <= 0
 R159: always_2dx33306d9e7f58b6b0_0 - predicate_2dx30be4d89f565bb0c_23
   <= 0
 R160: always_2dx33306d9e7f58b6b0_0 - predicate_2dx30be4d89f565bb0c_24
   <= 0
 R161: always_2dx33306d9e7f58b6b0_0 - predicate_2dx30be4d89f565bb0c_17
   - predicate_2dx30be4d89f565bb0c_18 - predicate_2dx30be4d89f565bb0c_19
   - predicate_2dx30be4d89f565bb0c_20 - predicate_2dx30be4d89f565bb0c_21
   - predicate_2dx30be4d89f565bb0c_22 - predicate_2dx30be4d89f565bb0c_23
   - predicate_2dx30be4d89f565bb0c_24 >= -7
 R162: and_2bx774dabba49604f84_0 - always_2dx778710aa24bf45ad_0 <= 0
 R163: and_2bx774dabba49604f84_0 - always_2dx96788d971626418_0 <= 0
 R164: and_2bx774dabba49604f84_0 - always_2dx33306d9e7f58b6b0_0 <= 0
 R165: and_2bx774dabba49604f84_0 - always_2dx778710aa24bf45ad_0
   - always_2dx96788d971626418_0 - always_2dx33306d9e7f58b6b0_0 >= -2
 formula_satisfaction: and_2bx774dabba49604f84_0 = 1
Bounds
 -infinity <= rho <= 999
 -4 <= x_0 <= 5
 -4 <= y_0 <= 5
 -4 <= z_0 <= 5
 -3 <= u_0 <= 4
 -2 <= v_0 <= 3
 -3 <= w_0 <= 3
 -4 <= x_1 <= 5
 -4 <= y_1 <= 5
 -4 <= z_1 <= 5
 -3 <= u_1 <= 4
 -2 <= v_1 <= 3
 -3 <= w_1 <= 3
 -4 <= x_2 <= 5
 -4 <= y_2 <= 5
 -4 <= z_2 <= 5
 -3 <= u_2 <= 4
 -2 <= v_2 <= 3
 -3 <= w_2 <= 3
 -4 <= x_3 <= 5
 -4 <= y_3 <= 5
 -4 <= z_3 <= 5
 -3 <= u_3 <= 4
 -2 <= v_3 <= 3
 -3 <= w_3 <= 3
 -4 <= x_4 <= 5
 -4 <= y_4 <= 5
 -4 <= z_4 <= 5
 -3 <= u_4 <= 4
 -2 <= v_4 <= 3
 -3 <= w_4 <= 3
 -4 <= x_5 <= 5
 -4 <= y_5 <= 5
 -4 <= z_5 <= 5
 -3 <= u_5 <= 4
 -2 <= v_5 <= 3
 -3 <= w_5 <= 3
 -4 <= x_6 <= 5
 -4 <= y_6 <= 5
 -4 <= z_6 <= 5
 -3 <= u_6 <= 4
 -2 <= v_6 <= 3
 -3 <= w_6 <= 3
 -4 <= x_7 <= 5
 -4 <= y_7 <= 5
 -4 <= z_7 <= 5
 -3 <= u_7 <= 4
 -2 <= v_7 <= 3
 -3 <= w_7 <= 3
 -4 <= x_8 <= 5
 -4 <= y_8 <= 5
 -4 <= z_8 <= 5
 -3 <= u_8 <= 4
 -2 <= v_8 <= 3
 -3 <= w_8 <= 3
 -4 <= x_9 <= 5
 -4 <= y_9 <= 5
 -4 <= z_9 <= 5
 -3 <= u_9 <= 4
 -2 <= v_9 <= 3
 -3 <= w_9 <= 3
 -4 <= x_10 <= 5
 -4 <= y_10 <= 5
 -4 <= z_10 <= 5
 -3 <= u_10 <= 4
 -2 <= v_10 <= 3
 -3 <= w_10 <= 3
 -4 <= x_11 <= 5
 -4 <= y_11 <= 5
 -4 <= z_11 <= 5
 -3 <= u_11 <= 4
 -2 <= v_11 <= 3
 -3 <= w_11 <= 3
 -4 <= x_12 <= 5
 -4 <= y_12 <= 5
 -4 <= z_12 <= 5
 -3 <= u_12 <= 4
 -2 <= v_12 <= 3
 -3 <= w_12 <= 3
 -4 <= x_13 <= 5
 -4 <= y_13 <= 5
 -4 <= z_13 <= 5
 -3 <= u_13 <= 4
 -2 <= v_13 <= 3
 -3 <= w_13 <= 3
 -4 <= x_14 <= 5
 -4 <= y_14 <= 5
 -4 <= z_14 <= 5
 -3 <= u_14 <= 4
 -2 <= v_14 <= 3
 -3 <= w_14 <= 3
 -4 <= x_15 <= 5
 -4 <= y_15 <= 5
 -4 <= z_15 <= 5
 -3 <= u_15 <= 4
 -2 <= v_15 <= 3
 -3 <= w_15 <= 3
 -4 <= x_16 <= 5
 -4 <= y_16 <= 5
 -4 <= z_16 <= 5
 -3 <= u_16 <= 4
 -2 <= v_16 <= 3
 -3 <= w_16 <= 3
 -4 <= x_17 <= 5
 -4 <= y_17 <= 5
 -4 <= z_17 <= 5
 -3 <= u_17 <= 4
 -2 <= v_17 <= 3
 -3 <= w_17 <= 3
 -4 <= x_18 <= 5
 -4 <= y_18 <= 5
 -4 <= z_18 <= 5
 -3 <= u_18 <= 4
 -2 <= v_18 <= 3
 -3 <= w_18 <= 3
 -4 <= x_19 <= 5
 -4 <= y_19 <= 5
 -4 <= z_19 <= 5
 -3 <= u_19 <= 4
 -2 <= v_19 <= 3
 -3 <= w_19 <= 3
 -4 <= x_20 <= 5
 -4 <= y_20 <= 5
 -4 <= z_20 <= 5
 -3 <= u_20 <= 4
 -2 <= v_20 <= 3
 -3 <= w_20 <= 3
 -4 <= x_21 <= 5
 -4 <= y_21 <= 5
 -4 <= z_21 <= 5
 -3 <= u_21 <= 4
 -2 <= v_21 <= 3
 -3 <= w_21 <= 3
 -4 <= x_22 <= 5
 -4 <= y_22 <= 5
 -4 <= z_22 <= 5
 -3 <= u_22 <= 4
 -2 <= v_22 <= 3
 -3 <= w_22 <= 3
 -4 <= x_23 <= 5
 -4 <= y_23 <= 5
 -4 <= z_23 <= 5
 -3 <= u_23 <= 4
 -2 <= v_23 <= 3
 -3 <= w_23 <= 3
 -4 <= x_24 <= 5
 -4 <= y_24 <= 5
 -4 <= z_24 <= 5
 -3 <= u_24 <= 4
 -2 <= v_24 <= 3
 -3 <= w_24 <= 3
 -4 <= x_25 <= 5
 -4 <= y_25 <= 5
 -4 <= z_25 <= 5
 -3 <= u_25 <= 4
 -2 <= v_25 <= 3
 -3 <= w_25 <= 3
 -4 <= x_26 <= 5
 -4 <= y_26 <= 5
 -4 <= z_26 <= 5
 -3 <= u_26 <= 4
 -2 <= v_26 <= 3
 -3 <= w_26 <= 3
 -4 <= x_27 <= 5
 -4 <= y_27 <= 5
 -4 <= z_27 <= 5
 -3 <= u_27 <= 4
 -2 <= v_27 <= 3
 -3 <= w_27 <= 3
 -4 <= x_28 <= 5
 -4 <= y_28 <= 5
 -4 <= z_28 <= 5
 -3 <= u_28 <= 4
 -2 <= v_28 <= 3
 -3 <= w_28 <= 3
 -4 <= x_29 <= 5
 -4 <= y_29 <= 5
 -4 <= z_29 <= 5
 -3 <= u_29 <= 4
 -2 <= v_29 <= 3
 -3 <= w_29 <= 3
Binaries
 and_2bx774dabba49604f84_0 always_2dx778710aa24bf45ad_0
 predicate_2dx22dd95ed78b4d217_0 predicate_2dx22dd95ed78b4d217_1
 predicate_2dx22dd95ed78b4d217_2 predicate_2dx22dd95ed78b4d217_3
 predicate_2dx22dd95ed78b4d217_4 predicate_2dx22dd95ed78b4d217_5
 predicate_2dx22dd95ed78b4d217_6 predicate_2dx22dd95ed78b4d217_7
 predicate_2dx22dd95ed78b4d217_8 predicate_2dx22dd95ed78b4d217_9
 predicate_2dx22dd95ed78b4d217_10 always_2dx96788d971626418_0
 predicate_2dx797b9146c700e2d3_12 predicate_2dx797b9146c700e2d3_13
 predicate_2dx797b9146c700e2d3_14 predicate_2dx797b9146c700e2d3_15
 always_2dx33306d9e7f58b6b0_0 predicate_2dx30be4d89f565bb0c_17
 predicate_2dx30be4d89f565bb0c_18 predicate_2dx30be4d89f565bb0c_19
 predicate_2dx30be4d89f565bb0c_20 predicate_2dx30be4d89f565bb0c_21
 predicate_2dx30be4d89f565bb0c_22 predicate_2dx30be4d89f565bb0c_23
 predicate_2dx30be4d89f565bb0c_24
End
